%%% static parameters %%%
timespan = 1;
Fact = [2];
Distr1 = [5];
Distr2 = [10];
Clients_N = [100];
Demand_W = [15];
Lt0 = [4];
Lt1 = [4];
SS_ = [0.85];
DS_D = [8];
K = [200];
MA = [500];
%%% dynamic parameters %%%
lost_ratio_sales_ret_th = 0.28540084596836746;
lost_ratio_sales_ret_w = 8;
lost_ratio_sales_dis_th = 0.9309005152495343;
lost_ratio_sales_dis_w = 39;
lost_ratio_sales_fac_th = 0.19256268259895504;
lost_ratio_sales_fac_w = 22;
stock_customer_MA_mean_relative_th = 0.9409415055206298;
stock_customer_MA_mean_relative_w = 35;
stock_distributor_MA_mean_relative_th = 0.1684585154047834;
stock_distributor_MA_mean_relative_w = 84;
stock_retailer_MA_mean_relative_th = 0.43890512245725655;
stock_retailer_MA_mean_relative_w = 51;
stock_factory_MA_mean_relative_th = 0.9688963466144842;
stock_factory_MA_mean_relative_w = 42;
